p cnf 193 814
-1 -33 0
-2 -33 0
1 2 33 0
1 2 -34 0
-1 -2 -34 0
-1 2 34 0
1 -2 34 0
33 -35 0
-3 -35 0
3 -33 35 0
3 -33 -36 0
-3 33 -36 0
3 33 36 0
-3 -33 36 0
35 -37 0
-4 -37 0
4 -35 37 0
4 -35 -38 0
-4 35 -38 0
4 35 38 0
-4 -35 38 0
37 -39 0
-5 -39 0
5 -37 39 0
5 -37 -40 0
-5 37 -40 0
5 37 40 0
-5 -37 40 0
39 -41 0
-6 -41 0
6 -39 41 0
6 -39 -42 0
-6 39 -42 0
6 39 42 0
-6 -39 42 0
41 -43 0
-7 -43 0
7 -41 43 0
7 -41 -44 0
-7 41 -44 0
7 41 44 0
-7 -41 44 0
43 -45 0
-8 -45 0
8 -43 45 0
8 -43 -46 0
-8 43 -46 0
8 43 46 0
-8 -43 46 0
2 -47 0
1 -47 0
-1 -2 47 0
-1 -2 -48 0
1 2 -48 0
1 -2 48 0
-1 2 48 0
-2 -3 49 0
-3 -47 49 0
-2 -47 49 0
2 3 -49 0
3 47 -49 0
2 47 -49 0
3 -49 -50 0
2 -49 -50 0
47 -49 -50 0
-3 49 50 0
-2 49 50 0
-47 49 50 0
-2 -3 -47 50 0
2 3 47 -50 0
-3 -4 51 0
-4 -49 51 0
-3 -49 51 0
3 4 -51 0
4 49 -51 0
3 49 -51 0
4 -51 -52 0
3 -51 -52 0
49 -51 -52 0
-4 51 52 0
-3 51 52 0
-49 51 52 0
-3 -4 -49 52 0
3 4 49 -52 0
-4 -5 53 0
-5 -51 53 0
-4 -51 53 0
4 5 -53 0
5 51 -53 0
4 51 -53 0
5 -53 -54 0
4 -53 -54 0
51 -53 -54 0
-5 53 54 0
-4 53 54 0
-51 53 54 0
-4 -5 -51 54 0
4 5 51 -54 0
-5 -6 55 0
-6 -53 55 0
-5 -53 55 0
5 6 -55 0
6 53 -55 0
5 53 -55 0
6 -55 -56 0
5 -55 -56 0
53 -55 -56 0
-6 55 56 0
-5 55 56 0
-53 55 56 0
-5 -6 -53 56 0
5 6 53 -56 0
-6 -7 57 0
-7 -55 57 0
-6 -55 57 0
6 7 -57 0
7 55 -57 0
6 55 -57 0
7 -57 -58 0
6 -57 -58 0
55 -57 -58 0
-7 57 58 0
-6 57 58 0
-55 57 58 0
-6 -7 -55 58 0
6 7 55 -58 0
-7 -8 59 0
-8 -57 59 0
-7 -57 59 0
7 8 -59 0
8 57 -59 0
7 57 -59 0
8 -59 -60 0
7 -59 -60 0
57 -59 -60 0
-8 59 60 0
-7 59 60 0
-57 59 60 0
-7 -8 -57 60 0
7 8 57 -60 0
8 -61 0
59 -61 0
-8 -59 61 0
-8 -59 -62 0
8 59 -62 0
-8 59 62 0
8 -59 62 0
52 -63 0
1 -63 0
-1 -52 63 0
-1 -52 -64 0
1 52 -64 0
1 -52 64 0
-1 52 64 0
-2 -54 65 0
-54 -63 65 0
-2 -63 65 0
2 54 -65 0
54 63 -65 0
2 63 -65 0
54 -65 -66 0
2 -65 -66 0
63 -65 -66 0
-54 65 66 0
-2 65 66 0
-63 65 66 0
-2 -54 -63 66 0
2 54 63 -66 0
-3 -56 67 0
-56 -65 67 0
-3 -65 67 0
3 56 -67 0
56 65 -67 0
3 65 -67 0
56 -67 -68 0
3 -67 -68 0
65 -67 -68 0
-56 67 68 0
-3 67 68 0
-65 67 68 0
-3 -56 -65 68 0
3 56 65 -68 0
-4 -58 69 0
-58 -67 69 0
-4 -67 69 0
4 58 -69 0
58 67 -69 0
4 67 -69 0
58 -69 -70 0
4 -69 -70 0
67 -69 -70 0
-58 69 70 0
-4 69 70 0
-67 69 70 0
-4 -58 -67 70 0
4 58 67 -70 0
-5 -60 71 0
-60 -69 71 0
-5 -69 71 0
5 60 -71 0
60 69 -71 0
5 69 -71 0
60 -71 -72 0
5 -71 -72 0
69 -71 -72 0
-60 71 72 0
-5 71 72 0
-69 71 72 0
-5 -60 -69 72 0
5 60 69 -72 0
-6 -62 73 0
-62 -71 73 0
-6 -71 73 0
6 62 -73 0
62 71 -73 0
6 71 -73 0
62 -73 -74 0
6 -73 -74 0
71 -73 -74 0
-62 73 74 0
-6 73 74 0
-71 73 74 0
-6 -62 -71 74 0
6 62 71 -74 0
-7 -61 75 0
-61 -73 75 0
-7 -73 75 0
7 61 -75 0
61 73 -75 0
7 73 -75 0
61 -75 -76 0
7 -75 -76 0
73 -75 -76 0
-61 75 76 0
-7 75 76 0
-73 75 76 0
-7 -61 -73 76 0
7 61 73 -76 0
8 -77 0
75 -77 0
-8 -75 77 0
-8 -75 -78 0
8 75 -78 0
-8 75 78 0
8 -75 78 0
-1 -79 0
-48 -79 0
1 48 79 0
1 48 -80 0
-1 -48 -80 0
-1 48 80 0
1 -48 80 0
79 -81 0
-50 -81 0
50 -79 81 0
50 -79 -82 0
-50 79 -82 0
50 79 82 0
-50 -79 82 0
81 -83 0
-64 -83 0
64 -81 83 0
64 -81 -84 0
-64 81 -84 0
64 81 84 0
-64 -81 84 0
83 -85 0
-66 -85 0
66 -83 85 0
66 -83 -86 0
-66 83 -86 0
66 83 86 0
-66 -83 86 0
85 -87 0
-68 -87 0
68 -85 87 0
68 -85 -88 0
-68 85 -88 0
68 85 88 0
-68 -85 88 0
87 -89 0
-70 -89 0
70 -87 89 0
70 -87 -90 0
-70 87 -90 0
70 87 90 0
-70 -87 90 0
89 -91 0
-72 -91 0
72 -89 91 0
72 -89 -92 0
-72 89 -92 0
72 89 92 0
-72 -89 92 0
91 -93 0
-74 -93 0
74 -91 93 0
74 -91 -94 0
-74 91 -94 0
74 91 94 0
-74 -91 94 0
93 -95 0
-76 -95 0
76 -93 95 0
76 -93 -96 0
-76 93 -96 0
76 93 96 0
-76 -93 96 0
95 -97 0
-78 -97 0
78 -95 97 0
78 -95 -98 0
-78 95 -98 0
78 95 98 0
-78 -95 98 0
97 -99 0
-77 -99 0
77 -97 99 0
77 -97 -100 0
-77 97 -100 0
77 97 100 0
-77 -97 100 0
-9 -101 0
-10 -101 0
9 10 101 0
9 10 -102 0
-9 -10 -102 0
-9 10 102 0
9 -10 102 0
101 -103 0
-11 -103 0
11 -101 103 0
11 -101 -104 0
-11 101 -104 0
11 101 104 0
-11 -101 104 0
103 -105 0
-12 -105 0
12 -103 105 0
12 -103 -106 0
-12 103 -106 0
12 103 106 0
-12 -103 106 0
105 -107 0
-13 -107 0
13 -105 107 0
13 -105 -108 0
-13 105 -108 0
13 105 108 0
-13 -105 108 0
107 -109 0
-14 -109 0
14 -107 109 0
14 -107 -110 0
-14 107 -110 0
14 107 110 0
-14 -107 110 0
109 -111 0
-15 -111 0
15 -109 111 0
15 -109 -112 0
-15 109 -112 0
15 109 112 0
-15 -109 112 0
111 -113 0
-16 -113 0
16 -111 113 0
16 -111 -114 0
-16 111 -114 0
16 111 114 0
-16 -111 114 0
11 -115 0
9 -115 0
-9 -11 115 0
-9 -11 -116 0
9 11 -116 0
9 -11 116 0
-9 11 116 0
-10 -12 117 0
-12 -115 117 0
-10 -115 117 0
10 12 -117 0
12 115 -117 0
10 115 -117 0
12 -117 -118 0
10 -117 -118 0
115 -117 -118 0
-12 117 118 0
-10 117 118 0
-115 117 118 0
-10 -12 -115 118 0
10 12 115 -118 0
-11 -13 119 0
-13 -117 119 0
-11 -117 119 0
11 13 -119 0
13 117 -119 0
11 117 -119 0
13 -119 -120 0
11 -119 -120 0
117 -119 -120 0
-13 119 120 0
-11 119 120 0
-117 119 120 0
-11 -13 -117 120 0
11 13 117 -120 0
-12 -14 121 0
-14 -119 121 0
-12 -119 121 0
12 14 -121 0
14 119 -121 0
12 119 -121 0
14 -121 -122 0
12 -121 -122 0
119 -121 -122 0
-14 121 122 0
-12 121 122 0
-119 121 122 0
-12 -14 -119 122 0
12 14 119 -122 0
-13 -15 123 0
-15 -121 123 0
-13 -121 123 0
13 15 -123 0
15 121 -123 0
13 121 -123 0
15 -123 -124 0
13 -123 -124 0
121 -123 -124 0
-15 123 124 0
-13 123 124 0
-121 123 124 0
-13 -15 -121 124 0
13 15 121 -124 0
-14 -16 125 0
-16 -123 125 0
-14 -123 125 0
14 16 -125 0
16 123 -125 0
14 123 -125 0
16 -125 -126 0
14 -125 -126 0
123 -125 -126 0
-16 125 126 0
-14 125 126 0
-123 125 126 0
-14 -16 -123 126 0
14 16 123 -126 0
15 -127 0
125 -127 0
-15 -125 127 0
-15 -125 -128 0
15 125 -128 0
-15 125 128 0
15 -125 128 0
16 -129 0
127 -129 0
-16 -127 129 0
-16 -127 -130 0
16 127 -130 0
-16 127 130 0
16 -127 130 0
118 -131 0
9 -131 0
-9 -118 131 0
-9 -118 -132 0
9 118 -132 0
9 -118 132 0
-9 118 132 0
-10 -120 133 0
-120 -131 133 0
-10 -131 133 0
10 120 -133 0
120 131 -133 0
10 131 -133 0
120 -133 -134 0
10 -133 -134 0
131 -133 -134 0
-120 133 134 0
-10 133 134 0
-131 133 134 0
-10 -120 -131 134 0
10 120 131 -134 0
-11 -122 135 0
-122 -133 135 0
-11 -133 135 0
11 122 -135 0
122 133 -135 0
11 133 -135 0
122 -135 -136 0
11 -135 -136 0
133 -135 -136 0
-122 135 136 0
-11 135 136 0
-133 135 136 0
-11 -122 -133 136 0
11 122 133 -136 0
-12 -124 137 0
-124 -135 137 0
-12 -135 137 0
12 124 -137 0
124 135 -137 0
12 135 -137 0
124 -137 -138 0
12 -137 -138 0
135 -137 -138 0
-124 137 138 0
-12 137 138 0
-135 137 138 0
-12 -124 -135 138 0
12 124 135 -138 0
-13 -126 139 0
-126 -137 139 0
-13 -137 139 0
13 126 -139 0
126 137 -139 0
13 137 -139 0
126 -139 -140 0
13 -139 -140 0
137 -139 -140 0
-126 139 140 0
-13 139 140 0
-137 139 140 0
-13 -126 -137 140 0
13 126 137 -140 0
-14 -128 141 0
-128 -139 141 0
-14 -139 141 0
14 128 -141 0
128 139 -141 0
14 139 -141 0
128 -141 -142 0
14 -141 -142 0
139 -141 -142 0
-128 141 142 0
-14 141 142 0
-139 141 142 0
-14 -128 -139 142 0
14 128 139 -142 0
-15 -130 143 0
-130 -141 143 0
-15 -141 143 0
15 130 -143 0
130 141 -143 0
15 141 -143 0
130 -143 -144 0
15 -143 -144 0
141 -143 -144 0
-130 143 144 0
-15 143 144 0
-141 143 144 0
-15 -130 -141 144 0
15 130 141 -144 0
-16 -129 145 0
-129 -143 145 0
-16 -143 145 0
16 129 -145 0
129 143 -145 0
16 143 -145 0
129 -145 -146 0
16 -145 -146 0
143 -145 -146 0
-129 145 146 0
-16 145 146 0
-143 145 146 0
-16 -129 -143 146 0
16 129 143 -146 0
-9 -147 0
-10 -147 0
9 10 147 0
9 10 -148 0
-9 -10 -148 0
-9 10 148 0
9 -10 148 0
147 -149 0
-116 -149 0
116 -147 149 0
116 -147 -150 0
-116 147 -150 0
116 147 150 0
-116 -147 150 0
149 -151 0
-132 -151 0
132 -149 151 0
132 -149 -152 0
-132 149 -152 0
132 149 152 0
-132 -149 152 0
151 -153 0
-134 -153 0
134 -151 153 0
134 -151 -154 0
-134 151 -154 0
134 151 154 0
-134 -151 154 0
153 -155 0
-136 -155 0
136 -153 155 0
136 -153 -156 0
-136 153 -156 0
136 153 156 0
-136 -153 156 0
155 -157 0
-138 -157 0
138 -155 157 0
138 -155 -158 0
-138 155 -158 0
138 155 158 0
-138 -155 158 0
157 -159 0
-140 -159 0
140 -157 159 0
140 -157 -160 0
-140 157 -160 0
140 157 160 0
-140 -157 160 0
159 -161 0
-142 -161 0
142 -159 161 0
142 -159 -162 0
-142 159 -162 0
142 159 162 0
-142 -159 162 0
161 -163 0
-144 -163 0
144 -161 163 0
144 -161 -164 0
-144 161 -164 0
144 161 164 0
-144 -161 164 0
163 -165 0
-146 -165 0
146 -163 165 0
146 -163 -166 0
-146 163 -166 0
146 163 166 0
-146 -163 166 0
165 -167 0
-145 -167 0
145 -165 167 0
145 -165 -168 0
-145 165 -168 0
145 165 168 0
-145 -165 168 0
48 -169 0
9 -169 0
-9 -48 169 0
-9 -48 -170 0
9 48 -170 0
9 -48 170 0
-9 48 170 0
-10 -50 171 0
-50 -169 171 0
-10 -169 171 0
10 50 -171 0
50 169 -171 0
10 169 -171 0
50 -171 -172 0
10 -171 -172 0
169 -171 -172 0
-50 171 172 0
-10 171 172 0
-169 171 172 0
-10 -50 -169 172 0
10 50 169 -172 0
-64 -116 173 0
-64 -171 173 0
-116 -171 173 0
64 116 -173 0
64 171 -173 0
116 171 -173 0
64 -173 -174 0
116 -173 -174 0
171 -173 -174 0
-64 173 174 0
-116 173 174 0
-171 173 174 0
-64 -116 -171 174 0
64 116 171 -174 0
-66 -132 175 0
-66 -173 175 0
-132 -173 175 0
66 132 -175 0
66 173 -175 0
132 173 -175 0
66 -175 -176 0
132 -175 -176 0
173 -175 -176 0
-66 175 176 0
-132 175 176 0
-173 175 176 0
-66 -132 -173 176 0
66 132 173 -176 0
-68 -134 177 0
-68 -175 177 0
-134 -175 177 0
68 134 -177 0
68 175 -177 0
134 175 -177 0
68 -177 -178 0
134 -177 -178 0
175 -177 -178 0
-68 177 178 0
-134 177 178 0
-175 177 178 0
-68 -134 -175 178 0
68 134 175 -178 0
-70 -136 179 0
-70 -177 179 0
-136 -177 179 0
70 136 -179 0
70 177 -179 0
136 177 -179 0
70 -179 -180 0
136 -179 -180 0
177 -179 -180 0
-70 179 180 0
-136 179 180 0
-177 179 180 0
-70 -136 -177 180 0
70 136 177 -180 0
-72 -138 181 0
-72 -179 181 0
-138 -179 181 0
72 138 -181 0
72 179 -181 0
138 179 -181 0
72 -181 -182 0
138 -181 -182 0
179 -181 -182 0
-72 181 182 0
-138 181 182 0
-179 181 182 0
-72 -138 -179 182 0
72 138 179 -182 0
-74 -140 183 0
-74 -181 183 0
-140 -181 183 0
74 140 -183 0
74 181 -183 0
140 181 -183 0
74 -183 -184 0
140 -183 -184 0
181 -183 -184 0
-74 183 184 0
-140 183 184 0
-181 183 184 0
-74 -140 -181 184 0
74 140 181 -184 0
-76 -142 185 0
-76 -183 185 0
-142 -183 185 0
76 142 -185 0
76 183 -185 0
142 183 -185 0
76 -185 -186 0
142 -185 -186 0
183 -185 -186 0
-76 185 186 0
-142 185 186 0
-183 185 186 0
-76 -142 -183 186 0
76 142 183 -186 0
-78 -144 187 0
-78 -185 187 0
-144 -185 187 0
78 144 -187 0
78 185 -187 0
144 185 -187 0
78 -187 -188 0
144 -187 -188 0
185 -187 -188 0
-78 187 188 0
-144 187 188 0
-185 187 188 0
-78 -144 -185 188 0
78 144 185 -188 0
-77 -146 189 0
-77 -187 189 0
-146 -187 189 0
77 146 -189 0
77 187 -189 0
146 187 -189 0
77 -189 -190 0
146 -189 -190 0
187 -189 -190 0
-77 189 190 0
-146 189 190 0
-187 189 190 0
-77 -146 -187 190 0
77 146 187 -190 0
145 -191 0
189 -191 0
-145 -189 191 0
-145 -189 -192 0
145 189 -192 0
-145 189 192 0
145 -189 192 0
-1 -193 0
170 -193 0
172 -193 0
174 -193 0
176 -193 0
-178 -193 0
180 -193 0
-182 -193 0
-184 -193 0
-186 -193 0
-188 -193 0
-190 -193 0
-191 -193 0
-192 -193 0
1 -170 -172 -174 -176 178 -180 182 184 186 188 190 191 192 193 0
193 0
c main::$tmp::return_value_nondet_char!0@1#1 17 18 19 20 21 22 23 24
c symex::nondet1 9 10 11 12 13 14 15 16
c symex::nondet0 1 2 3 4 5 6 7 8
c main::$tmp::return_value_nondet_char$0!0@1#2 9 10 11 12 13 14 15 16
c __CPROVER_rounding_mode!0#1 FALSE FALSE FALSE FALSE FALSE FALSE FALSE FALSE FALSE FALSE FALSE FALSE FALSE FALSE FALSE FALSE FALSE FALSE FALSE FALSE FALSE FALSE FALSE FALSE FALSE FALSE FALSE FALSE FALSE FALSE FALSE FALSE
c main::$tmp::return_value_nondet_char$0!0@1#1 25 26 27 28 29 30 31 32
c __CPROVER_memory_leak#1 FALSE FALSE FALSE FALSE FALSE FALSE FALSE FALSE FALSE FALSE FALSE FALSE FALSE FALSE FALSE FALSE FALSE FALSE FALSE FALSE FALSE FALSE FALSE FALSE FALSE FALSE FALSE FALSE FALSE FALSE FALSE FALSE FALSE FALSE FALSE FALSE FALSE FALSE FALSE FALSE FALSE FALSE FALSE FALSE FALSE FALSE FALSE FALSE FALSE FALSE FALSE FALSE FALSE FALSE FALSE FALSE FALSE FALSE FALSE FALSE FALSE FALSE FALSE FALSE
c __CPROVER_max_malloc_size#1 FALSE FALSE FALSE FALSE FALSE FALSE FALSE FALSE FALSE FALSE FALSE FALSE FALSE FALSE FALSE FALSE FALSE FALSE FALSE FALSE FALSE FALSE FALSE FALSE FALSE FALSE FALSE FALSE FALSE FALSE FALSE FALSE FALSE FALSE FALSE FALSE FALSE FALSE FALSE FALSE FALSE FALSE FALSE FALSE FALSE FALSE FALSE FALSE FALSE FALSE FALSE FALSE FALSE FALSE FALSE TRUE FALSE FALSE FALSE FALSE FALSE FALSE FALSE FALSE
c __CPROVER_deallocated#1 FALSE FALSE FALSE FALSE FALSE FALSE FALSE FALSE FALSE FALSE FALSE FALSE FALSE FALSE FALSE FALSE FALSE FALSE FALSE FALSE FALSE FALSE FALSE FALSE FALSE FALSE FALSE FALSE FALSE FALSE FALSE FALSE FALSE FALSE FALSE FALSE FALSE FALSE FALSE FALSE FALSE FALSE FALSE FALSE FALSE FALSE FALSE FALSE FALSE FALSE FALSE FALSE FALSE FALSE FALSE FALSE FALSE FALSE FALSE FALSE FALSE FALSE FALSE FALSE
c main::$tmp::return_value_nondet_char!0@1#2 1 2 3 4 5 6 7 8
c __CPROVER_dead_object#1 FALSE FALSE FALSE FALSE FALSE FALSE FALSE FALSE FALSE FALSE FALSE FALSE FALSE FALSE FALSE FALSE FALSE FALSE FALSE FALSE FALSE FALSE FALSE FALSE FALSE FALSE FALSE FALSE FALSE FALSE FALSE FALSE FALSE FALSE FALSE FALSE FALSE FALSE FALSE FALSE FALSE FALSE FALSE FALSE FALSE FALSE FALSE FALSE FALSE FALSE FALSE FALSE FALSE FALSE FALSE FALSE FALSE FALSE FALSE FALSE FALSE FALSE FALSE FALSE
